c FILE /home/rafael/Documents/HappySet/MIHS/inputs/happygen/output/graph_scale_free_k3_p0.4_v100_20241127_083815.txt
c SOURCE This is a scale-free graph formed for the happy graph colouring problem.
c DESCRIPTION It was generated using the problem generator of Rhyd Lewis
c
c GRAPH STATS
c Seed                             = 1603532787
c Number of Nodes                  = 100
c Number of colours k              = 3
c Number of pre-assignments        = 40
c Number of links per new node     = 5
c Density                          = 0.0979798
c 
c The degrees of nodes 1 to 100, respectively, are as follows 
c [39, 37, 33, 29, 27, 27, 26, 22, 20, 20, 18, 15, 14, 13, 13, 13, 12, 12, 12, 12, 11, 11, 11, 10, 10, 9, 
c  9, 9, 9, 9, 9, 9, 9, 9, 9, 9, 9, 9, 8, 8, 8, 8, 8, 8, 8, 8, 8, 8, 8, 7, 7, 
c  7, 7, 7, 7, 7, 7, 7, 7, 7, 7, 6, 6, 6, 6, 6, 6, 6, 6, 6, 6, 6, 6, 6, 6, 6, 
c  6, 6, 6, 6, 5, 5, 5, 5, 5, 5, 5, 5, 5, 5, 5, 5, 5, 5, 5, 5, 5, 5, 5, 5] 
c  
p edge 100 485 3
e 1 2
e 1 3
e 1 4
e 1 5
e 1 6
e 1 7
e 1 8
e 1 9
e 1 10
e 1 11
e 1 14
e 1 15
e 1 17
e 1 18
e 1 20
e 1 21
e 1 24
e 1 31
e 1 35
e 1 36
e 1 40
e 1 41
e 1 42
e 1 44
e 1 50
e 1 53
e 1 57
e 1 58
e 1 66
e 1 67
e 1 68
e 1 72
e 1 75
e 1 77
e 1 81
e 1 83
e 1 88
e 1 94
e 1 95
e 2 3
e 2 4
e 2 5
e 2 6
e 2 7
e 2 9
e 2 11
e 2 12
e 2 13
e 2 15
e 2 17
e 2 18
e 2 19
e 2 20
e 2 22
e 2 23
e 2 26
e 2 27
e 2 30
e 2 31
e 2 39
e 2 40
e 2 42
e 2 44
e 2 46
e 2 55
e 2 56
e 2 59
e 2 62
e 2 65
e 2 70
e 2 71
e 2 76
e 2 80
e 2 98
e 2 99
e 3 4
e 3 5
e 3 6
e 3 7
e 3 8
e 3 9
e 3 10
e 3 11
e 3 12
e 3 13
e 3 14
e 3 17
e 3 21
e 3 22
e 3 25
e 3 26
e 3 27
e 3 29
e 3 30
e 3 32
e 3 40
e 3 44
e 3 51
e 3 59
e 3 63
e 3 66
e 3 71
e 3 81
e 3 82
e 3 99
e 3 100
e 4 5
e 4 6
e 4 7
e 4 12
e 4 18
e 4 22
e 4 26
e 4 27
e 4 28
e 4 31
e 4 32
e 4 33
e 4 35
e 4 44
e 4 47
e 4 51
e 4 53
e 4 54
e 4 64
e 4 66
e 4 75
e 4 79
e 4 81
e 4 91
e 4 96
e 4 99
e 5 6
e 5 9
e 5 10
e 5 11
e 5 15
e 5 16
e 5 18
e 5 19
e 5 21
e 5 24
e 5 29
e 5 32
e 5 34
e 5 37
e 5 46
e 5 51
e 5 63
e 5 69
e 5 71
e 5 72
e 5 78
e 5 80
e 5 81
e 6 7
e 6 8
e 6 9
e 6 10
e 6 12
e 6 13
e 6 14
e 6 15
e 6 20
e 6 23
e 6 24
e 6 33
e 6 37
e 6 39
e 6 40
e 6 41
e 6 46
e 6 62
e 6 63
e 6 74
e 6 92
e 6 98
e 7 11
e 7 12
e 7 16
e 7 19
e 7 21
e 7 29
e 7 30
e 7 31
e 7 34
e 7 40
e 7 44
e 7 45
e 7 46
e 7 50
e 7 54
e 7 62
e 7 64
e 7 67
e 7 71
e 7 82
e 7 89
e 8 11
e 8 16
e 8 18
e 8 19
e 8 25
e 8 27
e 8 32
e 8 38
e 8 41
e 8 43
e 8 57
e 8 60
e 8 63
e 8 64
e 8 65
e 8 73
e 8 77
e 8 84
e 8 87
e 9 14
e 9 20
e 9 22
e 9 23
e 9 24
e 9 34
e 9 35
e 9 45
e 9 52
e 9 54
e 9 60
e 9 64
e 9 69
e 9 79
e 9 95
e 10 11
e 10 14
e 10 17
e 10 18
e 10 21
e 10 23
e 10 25
e 10 30
e 10 36
e 10 38
e 10 39
e 10 43
e 10 61
e 10 87
e 10 88
e 10 97
e 11 13
e 11 17
e 11 20
e 11 26
e 11 43
e 11 50
e 11 65
e 11 74
e 11 82
e 11 88
e 11 97
e 12 13
e 12 34
e 12 35
e 12 42
e 12 47
e 12 50
e 12 65
e 12 70
e 12 76
e 12 90
e 13 33
e 13 36
e 13 38
e 13 55
e 13 56
e 13 58
e 13 62
e 13 76
e 13 82
e 14 28
e 14 34
e 14 39
e 14 52
e 14 55
e 14 65
e 14 70
e 14 86
e 15 19
e 15 25
e 15 28
e 15 42
e 15 48
e 15 50
e 15 52
e 15 82
e 15 91
e 16 25
e 16 45
e 16 61
e 16 67
e 16 69
e 16 73
e 16 77
e 16 87
e 16 90
e 16 91
e 17 29
e 17 37
e 17 39
e 17 43
e 17 47
e 17 53
e 17 63
e 18 29
e 18 32
e 18 41
e 18 66
e 18 83
e 18 88
e 19 22
e 19 26
e 19 28
e 19 46
e 19 70
e 19 79
e 19 86
e 20 28
e 20 41
e 20 52
e 20 58
e 20 73
e 20 79
e 20 84
e 21 25
e 21 26
e 21 31
e 21 54
e 21 84
e 21 94
e 22 48
e 22 67
e 22 72
e 22 81
e 22 86
e 22 92
e 23 31
e 23 36
e 23 38
e 23 49
e 23 78
e 23 80
e 23 87
e 24 26
e 24 37
e 24 48
e 24 49
e 24 74
e 24 83
e 25 35
e 25 69
e 25 86
e 25 93
e 26 27
e 26 56
e 27 47
e 27 52
e 27 64
e 27 75
e 28 33
e 28 48
e 28 62
e 28 99
e 29 56
e 29 83
e 29 96
e 29 98
e 30 36
e 30 37
e 30 40
e 30 53
e 30 100
e 31 51
e 31 80
e 31 87
e 32 49
e 32 78
e 32 84
e 32 96
e 33 42
e 33 66
e 33 68
e 33 74
e 33 85
e 34 70
e 34 73
e 34 74
e 34 75
e 35 59
e 35 93
e 35 95
e 35 99
e 36 49
e 36 72
e 36 76
e 36 98
e 37 59
e 37 83
e 37 86
e 37 92
e 38 47
e 38 68
e 38 69
e 38 72
e 38 93
e 39 42
e 39 51
e 39 90
e 40 59
e 40 95
e 41 45
e 41 57
e 41 88
e 42 43
e 42 53
e 43 54
e 43 61
e 43 77
e 44 45
e 44 55
e 44 57
e 45 51
e 45 57
e 45 84
e 46 71
e 46 89
e 46 96
e 47 49
e 47 50
e 47 67
e 48 55
e 48 75
e 48 85
e 48 94
e 49 77
e 49 90
e 49 98
e 50 97
e 51 56
e 52 61
e 52 85
e 53 61
e 53 76
e 54 55
e 54 91
e 55 73
e 56 58
e 56 68
e 57 85
e 57 93
e 58 71
e 58 94
e 58 95
e 59 89
e 59 94
e 60 63
e 60 65
e 60 73
e 60 96
e 60 97
e 61 92
e 61 100
e 62 93
e 64 78
e 66 68
e 67 85
e 68 90
e 69 97
e 70 80
e 72 91
e 74 89
e 75 89
e 76 78
e 77 92
e 78 79
e 79 100
e 80 100
n 3 1
n 4 1
n 23 1
n 25 1
n 27 1
n 32 1
n 34 3
n 35 1
n 38 1
n 39 3
n 40 1
n 42 3
n 45 3
n 46 1
n 47 1
n 48 2
n 59 1
n 62 2
n 64 1
n 65 1
n 67 1
n 70 3
n 71 1
n 73 3
n 74 3
n 76 3
n 77 1
n 79 1
n 81 1
n 83 2
n 86 1
n 87 1
n 88 1
n 90 3
n 91 1
n 92 1
n 96 1
n 97 1
n 98 3
n 99 1
